(set-logic QF_S)
(declare-fun var0 () String)
(declare-fun var1 () String)
(declare-fun var2 () String)
(declare-fun var3 () String)
(declare-fun var4 () String)
(declare-fun var5 () String)
(declare-fun var6 () String)
(declare-fun var7 () String)
(declare-fun var8 () String)
(declare-fun var9 () String)
(declare-fun var10 () String)
(declare-fun var11 () String)
(declare-fun var12 () String)
(declare-fun var13 () String)
(declare-fun var14 () String)
(declare-fun var15 () String)
(declare-fun var16 () String)
(declare-fun var17 () String)
(declare-fun var18 () String)
(declare-fun var19 () String)
(declare-fun var20 () String)
(declare-fun var21 () String)
(declare-fun var22 () String)
(declare-fun var23 () String)
(declare-fun var24 () String)
(declare-fun var25 () String)
(declare-fun var26 () String)
(declare-fun var27 () String)
(declare-fun var28 () String)
(declare-fun var29 () String)
(declare-fun var30 () String)
(declare-fun var31 () String)
(declare-fun var32 () String)
(declare-fun var33 () String)
(declare-fun var34 () String)
(declare-fun var35 () String)
(declare-fun var36 () String)
(declare-fun var37 () String)
(declare-fun var38 () String)
(declare-fun var39 () String)
(declare-fun var40 () String)
(declare-fun var41 () String)
(declare-fun var42 () String)
(declare-fun var43 () String)
(declare-fun var44 () String)
(declare-fun var45 () String)
(declare-fun var46 () String)
(declare-fun var47 () String)
(declare-fun var48 () String)
(declare-fun var49 () String)
(declare-fun var50 () String)
(declare-fun var51 () String)
(declare-fun var52 () String)
(declare-fun var53 () String)
(declare-fun var54 () String)
(declare-fun var55 () String)
(declare-fun var56 () String)
(declare-fun var57 () String)
(declare-fun var58 () String)
(declare-fun var59 () String)
(declare-fun var60 () String)
(assert (= var0 (Concat var1 var2)))
(assert (= var2 (Concat var3 var4)))
(assert (= var4 (Concat var5 var6)))
(assert (= var6 (Concat var7 var8)))
(assert (= var8 (Concat var9 var10)))
(assert (= var10 (Concat var11 var12)))
(assert (= var12 (Concat var13 var14)))
(assert (= var14 (Concat var15 var16)))
(assert (= var16 (Concat var17 var18)))
(assert (= var18 (Concat var19 var20)))
(assert (= var20 (Concat var21 var22)))
(assert (= var22 (Concat var23 var24)))
(assert (= var24 (Concat var25 var26)))
(assert (= var26 (Concat var27 var28)))
(assert (= var28 (Concat var29 var30)))
(assert (= var30 (Concat var31 var32)))
(assert (= var32 (Concat var33 var34)))
(assert (= var34 (Concat var35 var36)))
(assert (= var36 (Concat var37 var38)))
(assert (= var38 (Concat var39 var40)))
(assert (= var40 (Concat var41 var42)))
(assert (= var42 (Concat var43 var44)))
(assert (= var44 (Concat var45 var46)))
(assert (= var46 (Concat var47 var48)))
(assert (= var48 (Concat var49 var50)))
(assert (= var50 (Concat var51 var52)))
(assert (= var52 (Concat var53 var54)))
(assert (= var54 (Concat var55 var56)))
(assert (= var56 (Concat var57 var58)))
(assert (= var58 (Concat var59 var60)))
(assert (= var0 "solution"))
(assert (= "A" (CharAt var39 512)))
(assert (= "1" (CharAt var21 599)))
(assert (= "L" (CharAt var60 688)))
(assert (= "[" (CharAt var43 555)))
(assert (= ":" (CharAt var44 220)))
(assert (= "I" (CharAt var20 980)))
(assert (= "A" (CharAt var51 687)))
(assert (= "P" (CharAt var35 454)))
(assert (= "!" (CharAt var24 427)))
(assert (= "n" (CharAt var57 24)))
(assert (= "e" (CharAt var58 731)))
(assert (= "2" (CharAt var60 200)))
(assert (= "r" (CharAt var8 972)))
(assert (= "u" (CharAt var0 159)))
(assert (= "/" (CharAt var54 180)))
(assert (= "j" (CharAt var10 52)))
(assert (= "O" (CharAt var29 602)))
(assert (= "T" (CharAt var16 870)))
(assert (= "L" (CharAt var48 865)))
(assert (= "h" (CharAt var41 310)))
(assert (= "v" (CharAt var57 226)))
(assert (= "n" (CharAt var49 667)))
(assert (= "%" (CharAt var43 390)))
(assert (= "1" (CharAt var45 78)))
(assert (= "<" (CharAt var40 901)))
(assert (= "E" (CharAt var48 88)))
(assert (= "`" (CharAt var3 933)))
(assert (= "M" (CharAt var12 276)))
(assert (= "<" (CharAt var11 432)))
(assert (= "R" (CharAt var55 19)))
(assert (= "r" (CharAt var51 564)))
(assert (= "," (CharAt var16 372)))
(assert (= "Q" (CharAt var13 347)))
(assert (= "?" (CharAt var55 152)))
(assert (= "7" (CharAt var59 80)))
(assert (= "e" (CharAt var24 528)))
(assert (= "p" (CharAt var43 400)))
(assert (= "`" (CharAt var13 671)))
(assert (= "o" (CharAt var3 188)))
(assert (= "+" (CharAt var33 600)))
(assert (= "'" (CharAt var33 620)))
(assert (= "^" (CharAt var29 369)))
(assert (= "'" (CharAt var5 670)))
(assert (= "]" (CharAt var41 415)))
(assert (= "J" (CharAt var10 266)))
(assert (= "P" (CharAt var29 138)))
(assert (= "@" (CharAt var26 602)))
(assert (= "x" (CharAt var50 757)))
(assert (= "}" (CharAt var45 290)))
(assert (= "`" (CharAt var6 688)))
(assert (= "r" (CharAt var35 763)))
(assert (= "\"" (CharAt var55 250)))
(assert (= "@" (CharAt var22 732)))
(assert (= "_" (CharAt var23 594)))
(assert (= "l" (CharAt var45 970)))
(assert (= "=" (CharAt var2 81)))
(assert (= "," (CharAt var37 555)))
(assert (= "5" (CharAt var58 236)))
(assert (= "|" (CharAt var13 315)))
(assert (= "9" (CharAt var9 227)))
(assert (= "p" (CharAt var34 959)))
(assert (= "*" (CharAt var14 804)))
(assert (= "B" (CharAt var40 236)))
(assert (= "l" (CharAt var0 432)))
(assert (= "j" (CharAt var19 588)))
(assert (= "T" (CharAt var37 994)))
(assert (= "s" (CharAt var46 866)))
(assert (= "D" (CharAt var30 605)))
(assert (= "i" (CharAt var36 670)))
(assert (= "n" (CharAt var40 266)))
(assert (= "E" (CharAt var26 214)))
(assert (= "R" (CharAt var58 422)))
(assert (= "l" (CharAt var37 151)))
(assert (= "m" (CharAt var16 16)))
(assert (= "U" (CharAt var8 831)))
(assert (= "~" (CharAt var44 364)))
(assert (= "/" (CharAt var6 357)))
(assert (= "3" (CharAt var17 593)))
(assert (= "d" (CharAt var10 736)))
(assert (= "\\" (CharAt var37 297)))
(assert (= "?" (CharAt var3 581)))
(assert (= "a" (CharAt var11 507)))
(assert (= "'" (CharAt var40 25)))
(assert (= ":" (CharAt var6 524)))
(assert (= "\"" (CharAt var60 906)))
(assert (= "U" (CharAt var58 238)))
(assert (= "!" (CharAt var35 20)))
(assert (= "c" (CharAt var13 690)))
(assert (= "R" (CharAt var49 143)))
(assert (= "N" (CharAt var47 785)))
(assert (= "\"" (CharAt var23 631)))
(assert (= "\"" (CharAt var58 298)))
(assert (= ";" (CharAt var52 994)))
(assert (= "/" (CharAt var15 761)))
(assert (= "." (CharAt var2 207)))
(assert (= "(" (CharAt var53 187)))
(assert (= "N" (CharAt var51 335)))
(assert (= "N" (CharAt var11 57)))
(assert (= "$" (CharAt var33 125)))
(assert (= "c" (CharAt var22 675)))
(assert (= "7" (CharAt var40 431)))
(assert (= ">" (CharAt var39 356)))
(assert (= "=" (CharAt var5 987)))
(assert (= "V" (CharAt var20 656)))
(assert (= "d" (CharAt var5 15)))
(assert (= "\"" (CharAt var55 170)))
(assert (= "n" (CharAt var5 677)))
(assert (= "h" (CharAt var23 328)))
(assert (= "[" (CharAt var14 407)))
(assert (= ">" (CharAt var59 606)))
(assert (= "7" (CharAt var4 653)))
(assert (= "t" (CharAt var46 108)))
(assert (= "G" (CharAt var49 345)))
(assert (= "c" (CharAt var51 906)))
(assert (= "i" (CharAt var45 389)))
(assert (= "1" (CharAt var34 599)))
(assert (= "5" (CharAt var46 14)))
(assert (= "7" (CharAt var14 191)))
(assert (= "&" (CharAt var47 915)))
(assert (= "@" (CharAt var54 112)))
(assert (= "Z" (CharAt var14 288)))
(assert (= "s" (CharAt var53 840)))
(assert (= "0" (CharAt var51 440)))
(assert (= "," (CharAt var14 597)))
(assert (= "." (CharAt var60 597)))
(assert (= "!" (CharAt var39 406)))
(assert (= "8" (CharAt var26 513)))
(assert (= "G" (CharAt var41 72)))
(assert (= "v" (CharAt var12 666)))
(assert (= "L" (CharAt var35 130)))
(assert (= ":" (CharAt var8 94)))
(assert (= "&" (CharAt var50 353)))
(assert (= "6" (CharAt var24 201)))
(assert (= "t" (CharAt var21 21)))
(assert (= "w" (CharAt var30 417)))
(assert (= "(" (CharAt var46 540)))
(assert (= "]" (CharAt var4 239)))
(assert (= "6" (CharAt var5 519)))
(assert (= "X" (CharAt var56 662)))
(assert (= "i" (CharAt var45 303)))
(assert (= "p" (CharAt var50 472)))
(assert (= "Z" (CharAt var22 205)))
(assert (= "t" (CharAt var3 696)))
(assert (= "?" (CharAt var35 122)))
(assert (= "f" (CharAt var42 52)))
(assert (= "B" (CharAt var1 613)))
(assert (= ")" (CharAt var1 173)))
(assert (= "$" (CharAt var60 687)))
(assert (= "7" (CharAt var6 156)))
(assert (= "2" (CharAt var44 730)))
(assert (= "_" (CharAt var59 152)))
(assert (= "w" (CharAt var52 229)))
(assert (= "0" (CharAt var28 172)))
(assert (= "A" (CharAt var10 277)))
(assert (= "<" (CharAt var44 835)))
(assert (= "z" (CharAt var51 538)))
(assert (= "|" (CharAt var36 659)))
(assert (= "\"" (CharAt var60 554)))
(assert (= "\"" (CharAt var31 395)))
(assert (= "q" (CharAt var42 189)))
(assert (= "f" (CharAt var47 563)))
(assert (= "}" (CharAt var15 857)))
(assert (= "`" (CharAt var51 928)))
(assert (= ";" (CharAt var13 529)))
(assert (= "E" (CharAt var36 261)))
(assert (= "b" (CharAt var41 558)))
(assert (= "@" (CharAt var8 876)))
(assert (= "p" (CharAt var25 574)))
(assert (= "m" (CharAt var3 376)))
(assert (= "v" (CharAt var12 157)))
(assert (= "c" (CharAt var16 793)))
(assert (= "t" (CharAt var33 26)))
(assert (= "Y" (CharAt var25 208)))
(assert (= "%" (CharAt var39 9)))
(assert (= "H" (CharAt var49 826)))
(assert (= "`" (CharAt var39 811)))
(assert (= "|" (CharAt var26 712)))
(assert (= "X" (CharAt var58 866)))
(assert (= "c" (CharAt var1 722)))
(assert (= "'" (CharAt var20 729)))
(assert (= ">" (CharAt var16 930)))
(assert (= "z" (CharAt var13 441)))
(assert (= "}" (CharAt var39 559)))
(assert (= "u" (CharAt var24 736)))
(assert (= "G" (CharAt var47 69)))
(assert (= "~" (CharAt var25 679)))
(assert (= "O" (CharAt var33 542)))
(assert (= ">" (CharAt var32 346)))
(assert (= "a" (CharAt var42 778)))
(assert (= "U" (CharAt var57 490)))
(assert (= "1" (CharAt var14 262)))
(assert (= "B" (CharAt var14 298)))
(assert (= "|" (CharAt var55 539)))
(assert (= "`" (CharAt var45 452)))
(assert (= "w" (CharAt var52 238)))
(assert (= "G" (CharAt var27 47)))
(assert (= "n" (CharAt var14 494)))
(assert (= "M" (CharAt var49 818)))
(assert (= "e" (CharAt var27 413)))
(assert (= "|" (CharAt var21 406)))
(assert (= "%" (CharAt var57 637)))
(assert (= "S" (CharAt var22 662)))
(assert (= "6" (CharAt var0 956)))
(assert (= "|" (CharAt var0 714)))
(assert (= ">" (CharAt var8 73)))
(assert (= "U" (CharAt var10 707)))
(assert (= "#" (CharAt var22 6)))
(assert (= "n" (CharAt var24 173)))
(assert (= "s" (CharAt var38 554)))
(assert (= "[" (CharAt var18 657)))
(assert (= "%" (CharAt var42 844)))
(assert (= "t" (CharAt var51 553)))
(assert (= "P" (CharAt var4 666)))
(assert (= "E" (CharAt var21 281)))
(assert (= "<" (CharAt var14 399)))
(assert (= "i" (CharAt var28 704)))
(assert (= "x" (CharAt var46 852)))
(assert (= ">" (CharAt var41 832)))
(assert (= "}" (CharAt var57 2)))
(assert (= "*" (CharAt var37 547)))
(assert (= "|" (CharAt var48 755)))
(assert (= "h" (CharAt var41 220)))
(assert (= "9" (CharAt var16 484)))
(assert (= ")" (CharAt var32 187)))
(assert (= "-" (CharAt var1 24)))
(assert (= "6" (CharAt var56 383)))
(assert (= "J" (CharAt var26 307)))
(assert (= "|" (CharAt var60 188)))
(assert (= "u" (CharAt var29 280)))
(assert (= "+" (CharAt var44 857)))
(assert (= "P" (CharAt var30 783)))
(assert (= "?" (CharAt var21 969)))
(assert (= "h" (CharAt var51 730)))
(assert (= "j" (CharAt var33 242)))
(assert (= "}" (CharAt var4 377)))
(assert (= "3" (CharAt var45 504)))
(assert (= "c" (CharAt var29 194)))
(assert (= "p" (CharAt var29 941)))
(assert (= "/" (CharAt var23 75)))
(assert (= "m" (CharAt var22 219)))
(assert (= "b" (CharAt var27 214)))
(assert (= ")" (CharAt var22 485)))
(assert (= "H" (CharAt var33 103)))
(assert (= "I" (CharAt var37 732)))
(assert (= "G" (CharAt var0 632)))
(assert (= "?" (CharAt var13 581)))
(assert (= "+" (CharAt var46 328)))
(assert (= "8" (CharAt var45 882)))
(assert (= "T" (CharAt var30 928)))
(assert (= "(" (CharAt var49 77)))
(assert (= "p" (CharAt var0 996)))
(assert (= "2" (CharAt var21 814)))
(assert (= "0" (CharAt var23 676)))
(assert (= "G" (CharAt var45 30)))
(assert (= "n" (CharAt var36 692)))
(assert (= "l" (CharAt var7 696)))
(assert (= "/" (CharAt var7 14)))
(assert (= "w" (CharAt var28 98)))
(assert (= "D" (CharAt var59 765)))
(assert (= "." (CharAt var6 977)))
(assert (= "|" (CharAt var42 180)))
(assert (= "x" (CharAt var18 494)))
(assert (= "a" (CharAt var43 29)))
(assert (= ";" (CharAt var24 657)))
(assert (= "B" (CharAt var11 554)))
(assert (= "X" (CharAt var17 940)))
(assert (= "7" (CharAt var14 701)))
(assert (= "?" (CharAt var38 371)))
(assert (= "Z" (CharAt var16 521)))
(assert (= "v" (CharAt var7 38)))
(assert (= "P" (CharAt var49 858)))
(assert (= "{" (CharAt var3 439)))
(assert (= "R" (CharAt var16 441)))
(assert (= "#" (CharAt var32 477)))
(assert (= "]" (CharAt var42 168)))
(assert (= "]" (CharAt var26 550)))
(assert (= "\"" (CharAt var34 347)))
(assert (= "M" (CharAt var30 461)))
(assert (= "~" (CharAt var5 841)))
(assert (= "i" (CharAt var22 241)))
(assert (= "(" (CharAt var59 442)))
(assert (= "l" (CharAt var54 959)))
(assert (= "U" (CharAt var51 998)))
(assert (= "S" (CharAt var12 193)))
(assert (= "<" (CharAt var57 232)))
(assert (= "Y" (CharAt var2 92)))
(assert (= "7" (CharAt var42 892)))
(assert (= "6" (CharAt var51 481)))
(assert (= "i" (CharAt var27 341)))
(assert (= "V" (CharAt var55 760)))
(assert (= "0" (CharAt var55 189)))
(assert (= ">" (CharAt var2 442)))
(assert (= ";" (CharAt var33 729)))
(assert (= "l" (CharAt var35 499)))
(assert (= "/" (CharAt var30 522)))
(assert (= "*" (CharAt var42 497)))
(assert (= "+" (CharAt var6 406)))
(assert (= "k" (CharAt var27 13)))
(assert (= "9" (CharAt var53 608)))
(assert (= "#" (CharAt var25 943)))
(assert (= "B" (CharAt var59 720)))
(assert (= "P" (CharAt var49 572)))
(assert (= "_" (CharAt var1 159)))
(assert (= "Q" (CharAt var57 539)))
(assert (= "I" (CharAt var33 502)))
(assert (= "w" (CharAt var36 754)))
(assert (= "g" (CharAt var53 799)))
(assert (= "C" (CharAt var6 730)))
(assert (= ">" (CharAt var7 289)))
(assert (= "e" (CharAt var60 806)))
(assert (= "u" (CharAt var39 411)))
(assert (= "K" (CharAt var2 91)))
(assert (= "j" (CharAt var38 606)))
(assert (= "E" (CharAt var13 715)))
(assert (= "h" (CharAt var52 194)))
(assert (= "i" (CharAt var4 438)))
(assert (= "|" (CharAt var19 96)))
(assert (= "x" (CharAt var39 129)))
(assert (= "c" (CharAt var23 689)))
(assert (= "V" (CharAt var49 738)))
(assert (= "U" (CharAt var54 124)))
(assert (= "1" (CharAt var60 450)))
(assert (= "=" (CharAt var20 299)))
(assert (= "G" (CharAt var5 61)))
(assert (= "!" (CharAt var26 26)))
(assert (= "m" (CharAt var14 753)))
(assert (= "#" (CharAt var55 509)))
(assert (= "f" (CharAt var46 227)))
(assert (= "v" (CharAt var40 391)))
(assert (= "!" (CharAt var8 304)))
(assert (= "D" (CharAt var23 197)))
(assert (= "R" (CharAt var14 281)))
(assert (= "^" (CharAt var59 686)))
(assert (= "&" (CharAt var33 292)))
(assert (= "?" (CharAt var38 999)))
(assert (= "x" (CharAt var30 891)))
(assert (= "+" (CharAt var47 355)))
(assert (= "Y" (CharAt var31 96)))
(assert (= "0" (CharAt var9 816)))
(assert (= "O" (CharAt var46 702)))
(assert (= "1" (CharAt var43 874)))
(assert (= "(" (CharAt var0 400)))
(assert (= "h" (CharAt var6 848)))
(assert (= "1" (CharAt var30 7)))
(assert (= "X" (CharAt var8 295)))
(assert (= "[" (CharAt var23 80)))
(assert (= "^" (CharAt var52 852)))
(assert (= "Y" (CharAt var40 361)))
(assert (= "8" (CharAt var53 686)))
(assert (= "}" (CharAt var21 534)))
(assert (= "a" (CharAt var54 894)))
(assert (= "u" (CharAt var40 463)))
(assert (= "a" (CharAt var60 281)))
(assert (= "Y" (CharAt var32 985)))
(assert (= "`" (CharAt var53 52)))
(assert (= "?" (CharAt var18 319)))
(assert (= "Y" (CharAt var35 161)))
(assert (= "f" (CharAt var16 315)))
(assert (= "z" (CharAt var51 419)))
(assert (= "j" (CharAt var26 106)))
(assert (= "t" (CharAt var37 573)))
(assert (= "8" (CharAt var25 629)))
(assert (= "M" (CharAt var11 826)))
(assert (= "`" (CharAt var26 700)))
(assert (= "5" (CharAt var37 909)))
(assert (= "d" (CharAt var37 676)))
(assert (= "+" (CharAt var26 674)))
(assert (= "=" (CharAt var32 280)))
(assert (= "." (CharAt var60 827)))
(assert (= "+" (CharAt var5 550)))
(assert (= "0" (CharAt var37 843)))
(assert (= "U" (CharAt var1 310)))
(assert (= "c" (CharAt var30 938)))
(assert (= "|" (CharAt var46 723)))
(assert (= "w" (CharAt var52 479)))
(assert (= "{" (CharAt var37 330)))
(assert (= "J" (CharAt var12 921)))
(assert (= "#" (CharAt var22 969)))
(assert (= "7" (CharAt var4 441)))
(assert (= "p" (CharAt var53 181)))
(assert (= "8" (CharAt var38 635)))
(assert (= "x" (CharAt var16 914)))
(assert (= "f" (CharAt var22 27)))
(assert (= "6" (CharAt var6 808)))
(assert (= "b" (CharAt var56 496)))
(assert (= "l" (CharAt var13 791)))
(assert (= "B" (CharAt var17 176)))
(assert (= "t" (CharAt var56 211)))
(assert (= "s" (CharAt var44 519)))
(assert (= "3" (CharAt var32 719)))
(assert (= "(" (CharAt var8 986)))
(assert (= ";" (CharAt var13 297)))
(assert (= "." (CharAt var49 153)))
(assert (= "d" (CharAt var5 839)))
(assert (= "0" (CharAt var20 184)))
(assert (= "9" (CharAt var19 697)))
(assert (= "\\" (CharAt var23 461)))
(assert (= "B" (CharAt var34 604)))
(assert (= "E" (CharAt var31 81)))
(assert (= "!" (CharAt var57 765)))
(assert (= "r" (CharAt var45 531)))
(assert (= "U" (CharAt var16 966)))
(assert (= "k" (CharAt var41 4)))
(assert (= "'" (CharAt var24 431)))
(assert (= "u" (CharAt var4 904)))
(assert (= "L" (CharAt var51 617)))
(assert (= "8" (CharAt var60 369)))
(assert (= "W" (CharAt var43 59)))
(assert (= "-" (CharAt var58 106)))
(assert (= "2" (CharAt var60 351)))
(assert (= "D" (CharAt var57 314)))
(assert (= "8" (CharAt var2 454)))
(assert (= "m" (CharAt var5 558)))
(assert (= "g" (CharAt var54 81)))
(assert (= ";" (CharAt var26 257)))
(assert (= "C" (CharAt var2 397)))
(assert (= "," (CharAt var22 955)))
(assert (= "b" (CharAt var50 471)))
(assert (= "2" (CharAt var34 498)))
(assert (= "3" (CharAt var58 920)))
(assert (= "+" (CharAt var13 291)))
(assert (= "x" (CharAt var17 255)))
(assert (= "w" (CharAt var42 212)))
(assert (= "O" (CharAt var48 896)))
(assert (= "," (CharAt var25 965)))
(assert (= ":" (CharAt var10 407)))
(assert (= "I" (CharAt var60 501)))
(assert (= "v" (CharAt var21 867)))
(assert (= "U" (CharAt var20 715)))
(assert (= "U" (CharAt var2 1000)))
(assert (= "i" (CharAt var28 296)))
(assert (= "0" (CharAt var5 691)))
(assert (= "L" (CharAt var54 637)))
(assert (= "A" (CharAt var22 801)))
(assert (= "X" (CharAt var38 104)))
(assert (= "T" (CharAt var43 84)))
(assert (= "b" (CharAt var53 259)))
(assert (= "e" (CharAt var46 927)))
(assert (= ")" (CharAt var26 206)))
(assert (= "u" (CharAt var8 361)))
(assert (= "^" (CharAt var18 772)))
(assert (= "B" (CharAt var31 833)))
(assert (= "~" (CharAt var14 748)))
(assert (= "(" (CharAt var51 291)))
(assert (= "#" (CharAt var13 424)))
(assert (= "]" (CharAt var49 770)))
(assert (= "2" (CharAt var34 733)))
(assert (= "B" (CharAt var39 638)))
(assert (= "Q" (CharAt var22 928)))
(assert (= "c" (CharAt var39 637)))
(assert (= "~" (CharAt var14 938)))
(assert (= "}" (CharAt var30 88)))
(assert (= "T" (CharAt var55 470)))
(assert (= "O" (CharAt var54 797)))
(assert (= "W" (CharAt var16 93)))
(assert (= "U" (CharAt var47 991)))
(assert (= "." (CharAt var37 533)))
(assert (= "f" (CharAt var15 850)))
(assert (= "V" (CharAt var49 480)))
(assert (= "H" (CharAt var37 702)))
(assert (= "#" (CharAt var0 584)))
(assert (= "Y" (CharAt var13 619)))
(assert (= "&" (CharAt var38 405)))
(assert (= "/" (CharAt var46 13)))
(assert (= "K" (CharAt var22 896)))
(assert (= "1" (CharAt var7 593)))
(assert (= "G" (CharAt var14 548)))
(assert (= "Q" (CharAt var27 56)))
(assert (= "q" (CharAt var60 645)))
(assert (= "7" (CharAt var47 986)))
(assert (= "M" (CharAt var21 309)))
(assert (= "6" (CharAt var38 403)))
(assert (= "P" (CharAt var14 346)))
(assert (= "`" (CharAt var44 125)))
(assert (= "D" (CharAt var29 35)))
(assert (= "K" (CharAt var39 509)))
(assert (= "<" (CharAt var33 22)))
(assert (= "[" (CharAt var26 468)))
(assert (= "]" (CharAt var11 338)))
(assert (= "_" (CharAt var20 997)))
(assert (= "]" (CharAt var14 1)))
(assert (= "0" (CharAt var16 202)))
(assert (= "w" (CharAt var42 240)))
(assert (= "2" (CharAt var30 61)))
(assert (= "a" (CharAt var49 735)))
(assert (= "s" (CharAt var9 438)))
(assert (= "C" (CharAt var6 889)))
(assert (= "1" (CharAt var26 878)))
(assert (= "d" (CharAt var11 194)))
(assert (= "3" (CharAt var29 210)))
(assert (= ":" (CharAt var36 966)))
(assert (= "g" (CharAt var6 2)))
(assert (= "Q" (CharAt var26 127)))
(assert (= "[" (CharAt var49 562)))
(assert (= "\"" (CharAt var17 13)))
(assert (= "g" (CharAt var43 481)))
(assert (= "P" (CharAt var28 786)))
(assert (= "Y" (CharAt var33 637)))
(assert (= "r" (CharAt var7 447)))
(assert (= "b" (CharAt var53 285)))
(assert (= "j" (CharAt var41 971)))
(assert (= "U" (CharAt var59 348)))
(assert (= "R" (CharAt var28 18)))
(assert (= "O" (CharAt var54 605)))
(assert (= "x" (CharAt var25 384)))
(assert (= "k" (CharAt var31 690)))
(assert (= "Q" (CharAt var30 564)))
(assert (= "^" (CharAt var8 563)))
(assert (= ">" (CharAt var3 51)))
(assert (= "o" (CharAt var58 442)))
(assert (= "s" (CharAt var55 843)))
(assert (= "H" (CharAt var24 455)))
(assert (= "&" (CharAt var23 415)))
(assert (= "g" (CharAt var56 325)))
(assert (= "7" (CharAt var15 897)))
(assert (= "u" (CharAt var1 823)))
(assert (= "o" (CharAt var38 953)))
(assert (= "G" (CharAt var6 982)))
(assert (= "R" (CharAt var7 879)))
(assert (= "{" (CharAt var9 668)))
(assert (= "n" (CharAt var9 653)))
(assert (= "C" (CharAt var1 703)))
(assert (= "P" (CharAt var46 699)))
(assert (= "!" (CharAt var8 180)))
(assert (= "{" (CharAt var1 123)))
(assert (= "$" (CharAt var14 540)))
(assert (= "&" (CharAt var59 470)))
(assert (= "M" (CharAt var59 166)))
(assert (= "&" (CharAt var37 773)))
(assert (= "I" (CharAt var2 263)))
(assert (= "7" (CharAt var4 794)))
(assert (= "Z" (CharAt var53 921)))
(assert (= "[" (CharAt var45 154)))
(assert (= "d" (CharAt var7 693)))
(assert (= "]" (CharAt var45 226)))
(assert (= "'" (CharAt var58 204)))
(assert (= "i" (CharAt var56 817)))
(assert (= "5" (CharAt var14 564)))
(assert (= "r" (CharAt var27 401)))
(assert (= "%" (CharAt var14 890)))
(assert (= "E" (CharAt var34 420)))
(assert (= "B" (CharAt var54 46)))
(assert (= "S" (CharAt var52 951)))
(assert (= "V" (CharAt var43 245)))
(assert (= "(" (CharAt var32 790)))
(assert (= "a" (CharAt var2 380)))
(assert (= "I" (CharAt var37 985)))
(assert (= "I" (CharAt var45 472)))
(assert (= "~" (CharAt var3 770)))
(assert (= "#" (CharAt var28 537)))
(assert (= "b" (CharAt var29 530)))
(assert (= "Q" (CharAt var23 73)))
(assert (= "B" (CharAt var48 440)))
(assert (= "^" (CharAt var9 734)))
(assert (= "," (CharAt var56 397)))
(assert (= "+" (CharAt var5 637)))
(assert (= "I" (CharAt var46 440)))
(assert (= "5" (CharAt var46 853)))
(assert (= "+" (CharAt var59 421)))
(assert (= "F" (CharAt var30 218)))
(assert (= "_" (CharAt var2 147)))
(assert (= "\"" (CharAt var28 479)))
(assert (= "f" (CharAt var58 130)))
(assert (= "C" (CharAt var4 38)))
(assert (= "?" (CharAt var28 137)))
(assert (= "J" (CharAt var44 73)))
(assert (= "[" (CharAt var53 731)))
(assert (= "!" (CharAt var37 396)))
(assert (= "U" (CharAt var48 456)))
(assert (= ">" (CharAt var39 715)))
(assert (= "z" (CharAt var26 357)))
(assert (= "T" (CharAt var22 606)))
(assert (= "w" (CharAt var0 870)))
(assert (= "7" (CharAt var44 214)))
(assert (= "z" (CharAt var35 800)))
(assert (= "{" (CharAt var59 738)))
(assert (= "6" (CharAt var27 178)))
(assert (= "e" (CharAt var30 991)))
(assert (= "K" (CharAt var42 723)))
(assert (= "X" (CharAt var27 464)))
(assert (= "f" (CharAt var2 802)))
(assert (= "/" (CharAt var25 986)))
(assert (= ")" (CharAt var42 355)))
(assert (= "^" (CharAt var4 992)))
(assert (= "n" (CharAt var37 220)))
(assert (= "L" (CharAt var28 541)))
(assert (= ">" (CharAt var20 900)))
(assert (= "!" (CharAt var25 401)))
(assert (= "k" (CharAt var12 715)))
(assert (= "{" (CharAt var59 358)))
(assert (= "`" (CharAt var48 797)))
(assert (= "b" (CharAt var0 295)))
(assert (= "X" (CharAt var1 194)))
(assert (= "q" (CharAt var38 620)))
(assert (= "b" (CharAt var28 797)))
(assert (= "&" (CharAt var59 82)))
(assert (= "[" (CharAt var51 980)))
(assert (= "3" (CharAt var7 288)))
(assert (= "?" (CharAt var30 60)))
(assert (= "`" (CharAt var6 537)))
(assert (= "4" (CharAt var26 732)))
(assert (= "P" (CharAt var14 693)))
(assert (= "f" (CharAt var22 711)))
(assert (= "R" (CharAt var57 458)))
(assert (= "4" (CharAt var36 968)))
(assert (= "}" (CharAt var59 523)))
(assert (= "C" (CharAt var60 612)))
(assert (= "#" (CharAt var54 834)))
(assert (= "$" (CharAt var28 46)))
(assert (= "v" (CharAt var35 553)))
(assert (= "6" (CharAt var59 307)))
(assert (= "a" (CharAt var11 972)))
(assert (= ";" (CharAt var11 169)))
(assert (= "w" (CharAt var45 719)))
(assert (= "z" (CharAt var55 581)))
(assert (= ";" (CharAt var30 544)))
(assert (= ":" (CharAt var31 962)))
(assert (= "V" (CharAt var38 611)))
(assert (= "o" (CharAt var12 972)))
(assert (= "L" (CharAt var58 255)))
(assert (= "'" (CharAt var26 338)))
(assert (= "|" (CharAt var10 663)))
(assert (= ">" (CharAt var13 427)))
(assert (= "U" (CharAt var16 696)))
(assert (= "k" (CharAt var51 995)))
(assert (= "G" (CharAt var29 59)))
(assert (= "~" (CharAt var3 380)))
(assert (= "'" (CharAt var57 934)))
(assert (= "F" (CharAt var24 998)))
(assert (= "V" (CharAt var26 832)))
(assert (= "H" (CharAt var37 919)))
(assert (= "2" (CharAt var38 227)))
(assert (= "\"" (CharAt var26 164)))
(assert (= "Z" (CharAt var48 640)))
(assert (= "u" (CharAt var46 911)))
(assert (= "~" (CharAt var4 69)))
(assert (= "D" (CharAt var56 941)))
(assert (= "V" (CharAt var53 675)))
(assert (= "'" (CharAt var49 853)))
(assert (= "t" (CharAt var4 44)))
(assert (= "R" (CharAt var27 591)))
(check-sat)